<number of tasks>
50

<cycle time>
1000

<order strength>
0.197


<task times>
1 241
2 173
3 141
4 65
5 157
6 197
7 80
8 112
9 113
10 75
11 204
12 52
13 182
14 142
15 34
16 113
17 124
18 33
19 147
20 197
21 37
22 190
23 168
24 138
25 26
26 35
27 39
28 114
29 201
30 61
31 125
32 152
33 59
34 85
35 140
36 181
37 26
38 146
39 51
40 124
41 152
42 227
43 39
44 136
45 301
46 217
47 233
48 143
49 252
50 36

<precedence relations>
1,6
1,17
2,19
3,10
4,9
4,11
4,12
5,7
5,8
5,47
5,49
6,13
7,14
7,15
7,17
8,16
8,19
8,44
9,23
10,18
11,37
13,23
14,20
15,21
16,22
17,25
19,24
19,26
20,27
21,28
22,29
23,31
24,30
27,32
28,34
29,36
30,33
30,37
31,35
31,37
31,38
32,42
33,39
34,40
35,41
36,42
37,46
38,43
38,44
38,46
39,46
40,45
41,47
42,48
43,47
43,49
44,50

<end>
